127
0 20 89 26 111 33 13 122 22 83 
84 98 90 78 11 6 113 19 71 32 
31 48 49 39 92 29 34 120 43 64 
86 91 51 94 16 45 97 36 28 27 
3 123 112 96 30 109 75 82 93 117 
1 69 25 9 125 99 88 81 105 118 
57 60 79 10 103 67 114 21 8 72 
65 62 115 77 95 85 56 87 46 119 
44 52 37 54 38 23 35 61 110 15 
80 126 68 58 70 74 73 101 107 24 
76 5 66 104 17 121 14 124 116 47 
63 41 4 100 42 102 108 18 59 55 
106 12 50 53 40 7 2 
